NAME: ETSP
COMMENT: Generated by write_TSPLIB (R package TSP)
TYPE: TSP
DIMENSION: 100
EDGE_WEIGHT_TYPE: EUC_2D
NODE_COORD_SECTION
1 0.000000e+00 0.000000e+00
2 1.000000e+01 0.000000e+00
3 2.000000e+01 0.000000e+00
4 3.000000e+01 0.000000e+00
5 4.000000e+01 0.000000e+00
6 6.000000e+01 0.000000e+00
7 7.000000e+01 0.000000e+00
8 8.000000e+01 0.000000e+00
9 9.000000e+01 0.000000e+00
10 1.000000e+02 0.000000e+00
11 0.000000e+00 1.000000e+01
12 2.000000e+01 1.000000e+01
13 4.000000e+01 1.000000e+01
14 7.000000e+01 1.000000e+01
15 8.000000e+01 1.000000e+01
16 9.000000e+01 1.000000e+01
17 1.000000e+02 1.000000e+01
18 0.000000e+00 2.000000e+01
19 1.000000e+01 2.000000e+01
20 2.000000e+01 2.000000e+01
21 3.000000e+01 2.000000e+01
22 4.000000e+01 2.000000e+01
23 5.000000e+01 2.000000e+01
24 6.000000e+01 2.000000e+01
25 8.000000e+01 2.000000e+01
26 9.000000e+01 2.000000e+01
27 1.000000e+02 2.000000e+01
28 1.100000e+02 2.000000e+01
29 2.000000e+01 3.000000e+01
30 3.000000e+01 3.000000e+01
31 5.000000e+01 3.000000e+01
32 8.000000e+01 3.000000e+01
33 9.000000e+01 3.000000e+01
34 1.000000e+02 3.000000e+01
35 1.100000e+02 3.000000e+01
36 0.000000e+00 4.000000e+01
37 1.000000e+01 4.000000e+01
38 4.000000e+01 4.000000e+01
39 5.000000e+01 4.000000e+01
40 6.000000e+01 4.000000e+01
41 8.000000e+01 4.000000e+01
42 1.000000e+02 4.000000e+01
43 1.100000e+02 4.000000e+01
44 1.000000e+01 5.000000e+01
45 4.000000e+01 5.000000e+01
46 5.000000e+01 5.000000e+01
47 6.000000e+01 5.000000e+01
48 7.000000e+01 5.000000e+01
49 8.000000e+01 5.000000e+01
50 9.000000e+01 5.000000e+01
51 1.000000e+02 5.000000e+01
52 1.100000e+02 5.000000e+01
53 2.000000e+01 6.000000e+01
54 3.000000e+01 6.000000e+01
55 4.000000e+01 6.000000e+01
56 5.000000e+01 6.000000e+01
57 7.000000e+01 6.000000e+01
58 8.000000e+01 6.000000e+01
59 9.000000e+01 6.000000e+01
60 1.000000e+02 6.000000e+01
61 0.000000e+00 7.000000e+01
62 1.000000e+01 7.000000e+01
63 2.000000e+01 7.000000e+01
64 4.000000e+01 7.000000e+01
65 5.000000e+01 7.000000e+01
66 1.100000e+02 7.000000e+01
67 0.000000e+00 8.000000e+01
68 2.000000e+01 8.000000e+01
69 3.000000e+01 8.000000e+01
70 4.000000e+01 8.000000e+01
71 5.000000e+01 8.000000e+01
72 9.000000e+01 8.000000e+01
73 1.000000e+02 8.000000e+01
74 1.100000e+02 8.000000e+01
75 0.000000e+00 9.000000e+01
76 3.000000e+01 9.000000e+01
77 4.000000e+01 9.000000e+01
78 5.000000e+01 9.000000e+01
79 6.000000e+01 9.000000e+01
80 7.000000e+01 9.000000e+01
81 8.000000e+01 9.000000e+01
82 1.000000e+02 9.000000e+01
83 1.100000e+02 9.000000e+01
84 0.000000e+00 1.000000e+02
85 2.000000e+01 1.000000e+02
86 3.000000e+01 1.000000e+02
87 4.000000e+01 1.000000e+02
88 5.000000e+01 1.000000e+02
89 6.000000e+01 1.000000e+02
90 7.000000e+01 1.000000e+02
91 8.000000e+01 1.000000e+02
92 9.000000e+01 1.000000e+02
93 1.000000e+02 1.000000e+02
94 0.000000e+00 1.100000e+02
95 1.000000e+01 1.100000e+02
96 3.000000e+01 1.100000e+02
97 5.000000e+01 1.100000e+02
98 6.000000e+01 1.100000e+02
99 8.000000e+01 1.100000e+02
100 1.100000e+02 1.100000e+02
EOF
